4
5
6
7
8
9
10
11
12
14
15
16
17
19
20
21
22
23
25
26
27
28
29
30
31
32
33
35
36
37
38
40
41
42
43
44
46
48
49
50
53
54
55
56
57
58
60
61
62
63
65
66
67
68
69
70
71
72
73
74
75
76
77
78
79
80
81
82
83
84
85
86
87
88
89
90
91
92
93
94
95
96
97
98
99
100
101
102
103
104
106
